decision_x1=[0,7];
decision_x2=[0,7];
decision_x3=[0,7];
decision_x4=[0,7];
decision_x5=[0,7];
decision_x6=[0,7];
decision_x7=[0,7];
decision_x8=[0,7];
decision_x9=[0,7];
decision_x10=[0,7];
decision_x11=[0,7];
decision_x12=[0,7];
decision_x13=[0,7];
decision_x14=[0,7];
random_y1=[0,7];
random_y2=[0,7];
random_y3=[0,7];
random_y4=[0,7];
random_y5=[0,7];
random_y6=[0,7];
constraint_x2_x1=[
0,0,1.7|
0,1,3.2|
0,2,1.6|
0,3,7.6|
0,4,8.8|
0,5,2.7|
0,6,6.2|
0,7,4.8|
1,0,2|
1,1,0.29|
1,2,9.7|
1,3,0.88|
1,4,0.29|
1,5,1.4|
1,6,4.2|
1,7,8.1|
2,0,5.1|
2,1,9.7|
2,2,2.7|
2,3,9.4|
2,4,1|
2,5,2.3|
2,6,0.91|
2,7,2.3|
3,0,3.2|
3,1,7.9|
3,2,6|
3,3,2.8|
3,4,3.9|
3,5,9.9|
3,6,3.9|
3,7,5.3|
4,0,5.3|
4,1,9.6|
4,2,4.1|
4,3,5.6|
4,4,9.9|
4,5,1.7|
4,6,4.9|
4,7,6.8|
5,0,8.9|
5,1,3.7|
5,2,6.1|
5,3,7|
5,4,1|
5,5,6.3|
5,6,1.2|
5,7,7.7|
6,0,0.39|
6,1,0.98|
6,2,3.1|
6,3,3.4|
6,4,3.4|
6,5,5.8|
6,6,7.7|
6,7,7.2|
7,0,0.71|
7,1,6.6|
7,2,9.7|
7,3,2.5|
7,4,3.4|
7,5,5.8|
7,6,9.1|
7,7,7.9|
];
constraint_x3_x2=[
0,0,6.4|
0,1,5.7|
0,2,5.8|
0,3,5.6|
0,4,3.1|
0,5,9.2|
0,6,2.8|
0,7,9.7|
1,0,7.4|
1,1,6.8|
1,2,9.9|
1,3,4.3|
1,4,4.8|
1,5,2.8|
1,6,9.2|
1,7,10|
2,0,9.4|
2,1,9.3|
2,2,1.5|
2,3,6.6|
2,4,3.8|
2,5,9.4|
2,6,5.5|
2,7,5.1|
3,0,2.7|
3,1,9.6|
3,2,8.3|
3,3,8.2|
3,4,6.3|
3,5,7.9|
3,6,4.4|
3,7,9|
4,0,1.9|
4,1,9.8|
4,2,0.54|
4,3,3.5|
4,4,9.1|
4,5,3.7|
4,6,2.3|
4,7,3.6|
5,0,9|
5,1,6.5|
5,2,3.5|
5,3,1.4|
5,4,7.8|
5,5,0.59|
5,6,2.1|
5,7,10|
6,0,5|
6,1,0.87|
6,2,8|
6,3,5.3|
6,4,0.78|
6,5,8.3|
6,6,4.1|
6,7,1.6|
7,0,5.5|
7,1,3.3|
7,2,2.8|
7,3,5.4|
7,4,6.9|
7,5,1.6|
7,6,7.5|
7,7,4.3|
];
constraint_x4_x3=[
0,0,4.2|
0,1,0.73|
0,2,8.9|
0,3,3.1|
0,4,9.9|
0,5,0.59|
0,6,8.5|
0,7,9.9|
1,0,7.4|
1,1,6|
1,2,5.3|
1,3,1.6|
1,4,4.2|
1,5,3.1|
1,6,4.6|
1,7,2.4|
2,0,1.4|
2,1,5.8|
2,2,1.6|
2,3,9.9|
2,4,7.7|
2,5,1.3|
2,6,1.6|
2,7,6.4|
3,0,9.5|
3,1,3.3|
3,2,8.2|
3,3,7.2|
3,4,9.9|
3,5,6.8|
3,6,2.6|
3,7,5.6|
4,0,0.12|
4,1,0.65|
4,2,1.9|
4,3,8.7|
4,4,5.5|
4,5,9|
4,6,4.2|
4,7,3.3|
5,0,4.7|
5,1,0.5|
5,2,8.3|
5,3,3.6|
5,4,1.6|
5,5,8.7|
5,6,0.53|
5,7,6.9|
6,0,8.8|
6,1,7.6|
6,2,8.2|
6,3,5.2|
6,4,9.5|
6,5,0.75|
6,6,1.3|
6,7,8.1|
7,0,0.1|
7,1,1.4|
7,2,4.7|
7,3,0.021|
7,4,9.1|
7,5,7.1|
7,6,3.2|
7,7,4.3|
];
constraint_x5_x1=[
0,0,2.6|
0,1,8.4|
0,2,2.1|
0,3,5.5|
0,4,9.3|
0,5,9|
0,6,0.97|
0,7,9.7|
1,0,4.8|
1,1,0.38|
1,2,8.9|
1,3,9|
1,4,8.1|
1,5,9.1|
1,6,4.7|
1,7,3.1|
2,0,2.6|
2,1,9.4|
2,2,9.7|
2,3,2|
2,4,2.2|
2,5,1.4|
2,6,5.9|
2,7,9.2|
3,0,9.5|
3,1,8.4|
3,2,7.2|
3,3,4|
3,4,7.1|
3,5,2.5|
3,6,3.7|
3,7,0.057|
4,0,2.8|
4,1,6.6|
4,2,5.9|
4,3,8.4|
4,4,1.8|
4,5,6.4|
4,6,0.62|
4,7,1.5|
5,0,4.6|
5,1,9.3|
5,2,1.3|
5,3,2.1|
5,4,2.1|
5,5,1.1|
5,6,4.1|
5,7,3.2|
6,0,1.9|
6,1,1.6|
6,2,3.9|
6,3,1.5|
6,4,4.7|
6,5,3.6|
6,6,8.4|
6,7,5.7|
7,0,4|
7,1,8.1|
7,2,5.9|
7,3,4.2|
7,4,0.18|
7,5,8.8|
7,6,2.3|
7,7,5.2|
];
constraint_x6_x2=[
0,0,6.3|
0,1,3.6|
0,2,8.8|
0,3,1.8|
0,4,6.7|
0,5,2.7|
0,6,8.7|
0,7,7.6|
1,0,4.5|
1,1,4.6|
1,2,3.4|
1,3,5.5|
1,4,8.6|
1,5,7.9|
1,6,3.3|
1,7,8.9|
2,0,0.54|
2,1,5.7|
2,2,1.5|
2,3,2.1|
2,4,2.9|
2,5,2.5|
2,6,4.6|
2,7,4.1|
3,0,4.3|
3,1,4.4|
3,2,2.7|
3,3,5.4|
3,4,2.8|
3,5,6.9|
3,6,7.1|
3,7,6.3|
4,0,7.1|
4,1,7.3|
4,2,0.48|
4,3,3.8|
4,4,3.7|
4,5,3.3|
4,6,2.5|
4,7,1.6|
5,0,6.4|
5,1,2.4|
5,2,5.3|
5,3,5.4|
5,4,5.7|
5,5,6.4|
5,6,9.8|
5,7,2.6|
6,0,8.9|
6,1,2.7|
6,2,4.1|
6,3,9|
6,4,10|
6,5,8.3|
6,6,6.2|
6,7,1.6|
7,0,1|
7,1,0.11|
7,2,0.28|
7,3,4.7|
7,4,2.7|
7,5,1.4|
7,6,1.3|
7,7,4.5|
];
constraint_x7_x3=[
0,0,0.053|
0,1,0.29|
0,2,1.9|
0,3,4.3|
0,4,4.6|
0,5,6.6|
0,6,7.7|
0,7,5.6|
1,0,2.6|
1,1,8.5|
1,2,1.1|
1,3,6.6|
1,4,6.8|
1,5,3.8|
1,6,3.5|
1,7,5.9|
2,0,9.3|
2,1,6|
2,2,2|
2,3,1.7|
2,4,0.9|
2,5,7.3|
2,6,0.7|
2,7,0.55|
3,0,9.2|
3,1,5.4|
3,2,4.9|
3,3,1.2|
3,4,3.1|
3,5,7.2|
3,6,8.1|
3,7,7.9|
4,0,1.8|
4,1,9|
4,2,5.3|
4,3,7|
4,4,2.3|
4,5,5.3|
4,6,1.9|
4,7,4.5|
5,0,6.4|
5,1,1.3|
5,2,4.9|
5,3,8.8|
5,4,6.8|
5,5,9|
5,6,5.6|
5,7,1.1|
6,0,4.1|
6,1,8|
6,2,4.7|
6,3,1.3|
6,4,5.1|
6,5,9.6|
6,6,2|
6,7,9|
7,0,9.4|
7,1,1.9|
7,2,1.8|
7,3,4.8|
7,4,3.6|
7,5,7.5|
7,6,8.2|
7,7,8.9|
];
constraint_x8_x4=[
0,0,8.5|
0,1,4.4|
0,2,3.4|
0,3,1.2|
0,4,1.1|
0,5,3.2|
0,6,0.93|
0,7,0.72|
1,0,1.1|
1,1,5.4|
1,2,0.32|
1,3,2.5|
1,4,2.1|
1,5,6.5|
1,6,3.7|
1,7,6.3|
2,0,3.3|
2,1,4.7|
2,2,1|
2,3,0.99|
2,4,9.5|
2,5,6.1|
2,6,5.5|
2,7,0.57|
3,0,3.8|
3,1,5.6|
3,2,0.29|
3,3,0.27|
3,4,1.2|
3,5,3.8|
3,6,9.9|
3,7,8.5|
4,0,8.7|
4,1,8.3|
4,2,1.7|
4,3,1.5|
4,4,1.2|
4,5,4.5|
4,6,9.4|
4,7,6.1|
5,0,9.4|
5,1,3.9|
5,2,1.7|
5,3,6.4|
5,4,6.3|
5,5,2.7|
5,6,6.1|
5,7,2.9|
6,0,5.5|
6,1,0.78|
6,2,4.4|
6,3,2|
6,4,2.2|
6,5,6.2|
6,6,4.3|
6,7,4.3|
7,0,7.8|
7,1,4.5|
7,2,7.6|
7,3,0.33|
7,4,7|
7,5,8.1|
7,6,4|
7,7,0.53|
];
constraint_x9_x5=[
0,0,0.37|
0,1,4.8|
0,2,8.3|
0,3,4.9|
0,4,5.5|
0,5,3|
0,6,9.2|
0,7,5|
1,0,0.77|
1,1,2.6|
1,2,7.2|
1,3,9.6|
1,4,7.1|
1,5,7.3|
1,6,7|
1,7,4.3|
2,0,8.9|
2,1,3.8|
2,2,6.4|
2,3,8.1|
2,4,0.14|
2,5,6.2|
2,6,7.2|
2,7,6.7|
3,0,1.6|
3,1,3.9|
3,2,8.4|
3,3,2.8|
3,4,0.18|
3,5,2|
3,6,4.2|
3,7,5.9|
4,0,1.3|
4,1,5.3|
4,2,8.1|
4,3,3.1|
4,4,4.9|
4,5,2.5|
4,6,0.017|
4,7,7.5|
5,0,5.3|
5,1,8.5|
5,2,6.9|
5,3,8.7|
5,4,0.52|
5,5,8.5|
5,6,6.9|
5,7,6.1|
6,0,4.3|
6,1,9.3|
6,2,8.8|
6,3,4.4|
6,4,2.4|
6,5,4.5|
6,6,1.6|
6,7,5.3|
7,0,8.1|
7,1,1.3|
7,2,2.6|
7,3,0.66|
7,4,3.8|
7,5,5.5|
7,6,2.5|
7,7,1.2|
];
constraint_x10_x6=[
0,0,1.5|
0,1,1.4|
0,2,7.6|
0,3,2.8|
0,4,6.7|
0,5,1.2|
0,6,6|
0,7,2|
1,0,5.5|
1,1,3.3|
1,2,3.9|
1,3,0.66|
1,4,7.6|
1,5,5.7|
1,6,9.7|
1,7,5.6|
2,0,2.4|
2,1,8.2|
2,2,3.3|
2,3,6.2|
2,4,2.5|
2,5,8|
2,6,3.1|
2,7,7.2|
3,0,0.79|
3,1,4.7|
3,2,3.3|
3,3,1.8|
3,4,7.4|
3,5,4.1|
3,6,2.7|
3,7,4.8|
4,0,9.5|
4,1,0.94|
4,2,0.044|
4,3,3.5|
4,4,5.8|
4,5,8|
4,6,5.8|
4,7,2.6|
5,0,7.6|
5,1,0.7|
5,2,0.54|
5,3,8.5|
5,4,7.3|
5,5,5.1|
5,6,2.5|
5,7,3.2|
6,0,0.5|
6,1,3.9|
6,2,4.8|
6,3,8.8|
6,4,1.2|
6,5,6.2|
6,6,0.95|
6,7,4.9|
7,0,8|
7,1,1.3|
7,2,9.8|
7,3,2.5|
7,4,3.8|
7,5,7.1|
7,6,6.2|
7,7,0.11|
];
constraint_x11_x7=[
0,0,9.7|
0,1,3.8|
0,2,7|
0,3,1.6|
0,4,4.7|
0,5,8.5|
0,6,7.8|
0,7,0.1|
1,0,9.5|
1,1,8|
1,2,2.5|
1,3,4.7|
1,4,0.82|
1,5,9.7|
1,6,8.2|
1,7,1.8|
2,0,5.3|
2,1,0.69|
2,2,2.6|
2,3,2.5|
2,4,6.9|
2,5,4.1|
2,6,3.7|
2,7,8|
3,0,6.8|
3,1,6.8|
3,2,1.8|
3,3,3.8|
3,4,5|
3,5,1.9|
3,6,0.52|
3,7,7.8|
4,0,2.7|
4,1,3|
4,2,8.4|
4,3,3.2|
4,4,8|
4,5,9|
4,6,9.8|
4,7,5.5|
5,0,6.2|
5,1,2.4|
5,2,3.8|
5,3,5.8|
5,4,3.2|
5,5,4.9|
5,6,1.8|
5,7,5.3|
6,0,2.8|
6,1,4.9|
6,2,9.4|
6,3,2.3|
6,4,5.9|
6,5,8|
6,6,7.8|
6,7,3.1|
7,0,6.3|
7,1,3.5|
7,2,5.8|
7,3,3.7|
7,4,0.096|
7,5,1.1|
7,6,0.75|
7,7,9.3|
];
constraint_x12_x8=[
0,0,9.1|
0,1,8.3|
0,2,5.8|
0,3,8.9|
0,4,9|
0,5,2.2|
0,6,2.1|
0,7,8.6|
1,0,6.6|
1,1,4.5|
1,2,8.5|
1,3,0.81|
1,4,5.4|
1,5,7.7|
1,6,4|
1,7,2.6|
2,0,1.2|
2,1,0.79|
2,2,4.3|
2,3,1.2|
2,4,0.39|
2,5,8.1|
2,6,2.4|
2,7,7.5|
3,0,5.2|
3,1,8.7|
3,2,0.34|
3,3,2.1|
3,4,2.3|
3,5,0.3|
3,6,5.9|
3,7,3.5|
4,0,1.7|
4,1,3.4|
4,2,8.3|
4,3,6|
4,4,8.6|
4,5,5.9|
4,6,3.1|
4,7,6.9|
5,0,6.7|
5,1,5.9|
5,2,3.4|
5,3,5.8|
5,4,0.41|
5,5,0.37|
5,6,8.5|
5,7,0.48|
6,0,2.9|
6,1,5.3|
6,2,9|
6,3,3.9|
6,4,0.72|
6,5,4.4|
6,6,9.4|
6,7,2.9|
7,0,1.2|
7,1,1.5|
7,2,5.9|
7,3,5.3|
7,4,2.8|
7,5,7.5|
7,6,5.2|
7,7,4.3|
];
constraint_x13_x9=[
0,0,1|
0,1,9.5|
0,2,4.7|
0,3,2.3|
0,4,2|
0,5,2.9|
0,6,7.9|
0,7,0.0027|
1,0,9.4|
1,1,8.2|
1,2,1.1|
1,3,8.3|
1,4,7.3|
1,5,9.3|
1,6,4.3|
1,7,9.4|
2,0,0.17|
2,1,9.9|
2,2,1.8|
2,3,4.6|
2,4,0.81|
2,5,4.9|
2,6,2.7|
2,7,5.6|
3,0,5.9|
3,1,2.4|
3,2,7|
3,3,1.6|
3,4,6.8|
3,5,3.9|
3,6,0.97|
3,7,8.6|
4,0,7.5|
4,1,9.4|
4,2,9.4|
4,3,2.1|
4,4,9.9|
4,5,9.9|
4,6,4.8|
4,7,8.9|
5,0,6.7|
5,1,3.6|
5,2,3.4|
5,3,1.5|
5,4,7.7|
5,5,4.6|
5,6,3.4|
5,7,7.4|
6,0,0.55|
6,1,8.4|
6,2,8.2|
6,3,5.2|
6,4,3.9|
6,5,9.7|
6,6,1.9|
6,7,9.7|
7,0,4.3|
7,1,9.5|
7,2,1.3|
7,3,3.3|
7,4,5.6|
7,5,5.7|
7,6,3.5|
7,7,0.7|
];
constraint_x14_x10=[
0,0,0.18|
0,1,5.5|
0,2,4.2|
0,3,6.5|
0,4,1.4|
0,5,8.2|
0,6,8.6|
0,7,9.8|
1,0,3|
1,1,2.5|
1,2,9.3|
1,3,5.3|
1,4,6.4|
1,5,8.1|
1,6,5.5|
1,7,2.5|
2,0,4.7|
2,1,4.4|
2,2,4.5|
2,3,0.76|
2,4,7.6|
2,5,1.3|
2,6,2.9|
2,7,5.8|
3,0,7.6|
3,1,5.3|
3,2,2.7|
3,3,3.7|
3,4,2.3|
3,5,2.8|
3,6,3.3|
3,7,5.1|
4,0,6.3|
4,1,3.6|
4,2,8.1|
4,3,2.7|
4,4,3.5|
4,5,3.2|
4,6,9.8|
4,7,9|
5,0,9|
5,1,1.2|
5,2,8.8|
5,3,8.4|
5,4,0.33|
5,5,7.4|
5,6,6.1|
5,7,5.9|
6,0,5.5|
6,1,2.8|
6,2,2.8|
6,3,0.47|
6,4,4.2|
6,5,1.8|
6,6,3.3|
6,7,8.1|
7,0,7.2|
7,1,7.2|
7,2,9.9|
7,3,9.2|
7,4,1.2|
7,5,5.8|
7,6,3.6|
7,7,8.6|
];
constraint_x1_y1=[
0,0,3.4|
0,1,6.3|
0,2,8.4|
0,3,8.5|
0,4,6.6|
0,5,9.5|
0,6,5.2|
0,7,0.99|
1,0,7.6|
1,1,6|
1,2,1.5|
1,3,5.8|
1,4,3.1|
1,5,1.5|
1,6,3.7|
1,7,6.7|
2,0,1.4|
2,1,7.2|
2,2,9.7|
2,3,0.77|
2,4,3.8|
2,5,9.1|
2,6,6.4|
2,7,6.3|
3,0,7.6|
3,1,2.6|
3,2,9.2|
3,3,7.2|
3,4,8|
3,5,4.4|
3,6,9.5|
3,7,6.8|
4,0,2.4|
4,1,6.8|
4,2,6.6|
4,3,8.7|
4,4,7.9|
4,5,5.7|
4,6,4.3|
4,7,1.7|
5,0,2.7|
5,1,6.2|
5,2,7.5|
5,3,5.8|
5,4,8.2|
5,5,6.9|
5,6,9.9|
5,7,3.7|
6,0,1.2|
6,1,8.1|
6,2,9.7|
6,3,5.2|
6,4,1.7|
6,5,5.5|
6,6,9.6|
6,7,5.9|
7,0,4.6|
7,1,8.1|
7,2,1.2|
7,3,2|
7,4,7.6|
7,5,6.1|
7,6,4.1|
7,7,6.9|
];
constraint_x2_y2=[
0,0,9.3|
0,1,1.7|
0,2,1.8|
0,3,5.9|
0,4,1.7|
0,5,2.3|
0,6,6.5|
0,7,0.47|
1,0,2.2|
1,1,8.4|
1,2,2.6|
1,3,5.9|
1,4,9.3|
1,5,9.3|
1,6,3.6|
1,7,2.7|
2,0,3.3|
2,1,6.1|
2,2,9.4|
2,3,8.6|
2,4,3.1|
2,5,7.7|
2,6,4.5|
2,7,4.1|
3,0,1|
3,1,4.9|
3,2,2.2|
3,3,5.2|
3,4,4.6|
3,5,4.3|
3,6,6.1|
3,7,1.2|
4,0,8.3|
4,1,5.6|
4,2,4.4|
4,3,5.9|
4,4,2.6|
4,5,3|
4,6,8.9|
4,7,5.9|
5,0,2|
5,1,1.6|
5,2,5.2|
5,3,6.9|
5,4,6.5|
5,5,2.1|
5,6,0.93|
5,7,7.6|
6,0,5.8|
6,1,3|
6,2,4.3|
6,3,0.27|
6,4,6.4|
6,5,5.7|
6,6,4.7|
6,7,2|
7,0,5.3|
7,1,9.8|
7,2,7.8|
7,3,8.3|
7,4,9.3|
7,5,9.8|
7,6,6.6|
7,7,5.9|
];
constraint_x3_y3=[
0,0,7.7|
0,1,8.3|
0,2,7.9|
0,3,6|
0,4,6|
0,5,8.4|
0,6,4.8|
0,7,3.4|
1,0,7.9|
1,1,6|
1,2,0.86|
1,3,5.6|
1,4,6.8|
1,5,8.5|
1,6,6.2|
1,7,5.5|
2,0,8.5|
2,1,3.4|
2,2,8.2|
2,3,2.5|
2,4,8.8|
2,5,6.6|
2,6,0.8|
2,7,6.1|
3,0,2.5|
3,1,6.9|
3,2,0.83|
3,3,6.1|
3,4,8.7|
3,5,9.2|
3,6,1.7|
3,7,5.3|
4,0,5.8|
4,1,9|
4,2,5.3|
4,3,6.6|
4,4,1.8|
4,5,9.5|
4,6,1.5|
4,7,7.4|
5,0,1.5|
5,1,9|
5,2,0.51|
5,3,6.5|
5,4,1|
5,5,3.1|
5,6,1.6|
5,7,0.43|
6,0,3|
6,1,7.9|
6,2,9.2|
6,3,8.5|
6,4,1.8|
6,5,2.2|
6,6,5.7|
6,7,10|
7,0,1.4|
7,1,1.6|
7,2,1.1|
7,3,7.5|
7,4,1.2|
7,5,5.5|
7,6,5.9|
7,7,6.4|
];
constraint_x4_y4=[
0,0,8.4|
0,1,3.9|
0,2,4.8|
0,3,7.1|
0,4,1.4|
0,5,6.9|
0,6,4.4|
0,7,4.7|
1,0,0.15|
1,1,0.96|
1,2,2.5|
1,3,5.3|
1,4,1.6|
1,5,5.3|
1,6,2.2|
1,7,3.2|
2,0,9|
2,1,0.0075|
2,2,7.5|
2,3,0.74|
2,4,1.9|
2,5,8|
2,6,3.3|
2,7,8|
3,0,7.6|
3,1,2.2|
3,2,8.6|
3,3,6.1|
3,4,2|
3,5,8.3|
3,6,3.7|
3,7,6.2|
4,0,4.5|
4,1,6.7|
4,2,6|
4,3,3.7|
4,4,2.4|
4,5,9.8|
4,6,2.3|
4,7,0.004|
5,0,3.5|
5,1,6|
5,2,9.9|
5,3,1.1|
5,4,4.4|
5,5,1.5|
5,6,9|
5,7,6.4|
6,0,4.2|
6,1,4.9|
6,2,2.2|
6,3,0.76|
6,4,3.9|
6,5,6.2|
6,6,9.4|
6,7,2.8|
7,0,0.21|
7,1,3.2|
7,2,0.29|
7,3,5.6|
7,4,3.7|
7,5,6.4|
7,6,4.9|
7,7,7.8|
];
constraint_x5_y5=[
0,0,7|
0,1,10|
0,2,1.3|
0,3,1.4|
0,4,3.3|
0,5,3.7|
0,6,6.4|
0,7,0.81|
1,0,3.7|
1,1,0.63|
1,2,3.3|
1,3,7.9|
1,4,3.7|
1,5,7.1|
1,6,8.2|
1,7,3.3|
2,0,4.4|
2,1,4.5|
2,2,9|
2,3,5.4|
2,4,1.3|
2,5,9.4|
2,6,5.4|
2,7,7|
3,0,0.62|
3,1,0.41|
3,2,2.6|
3,3,1.5|
3,4,7.7|
3,5,4.9|
3,6,5.7|
3,7,9.9|
4,0,7.6|
4,1,8.4|
4,2,5.2|
4,3,7.9|
4,4,9.8|
4,5,6.6|
4,6,5|
4,7,6.1|
5,0,6.7|
5,1,4.7|
5,2,5.1|
5,3,9.4|
5,4,5.8|
5,5,4.4|
5,6,5.1|
5,7,8.2|
6,0,1.4|
6,1,8.3|
6,2,9.4|
6,3,7.5|
6,4,5.7|
6,5,2.5|
6,6,9.5|
6,7,9|
7,0,6.2|
7,1,7.3|
7,2,0.61|
7,3,4.7|
7,4,9.6|
7,5,2.4|
7,6,9.2|
7,7,5.8|
];
constraint_x6_y6=[
0,0,0.93|
0,1,2.5|
0,2,2.2|
0,3,4.4|
0,4,3.2|
0,5,9.4|
0,6,8.6|
0,7,6|
1,0,4|
1,1,5.5|
1,2,4|
1,3,5.9|
1,4,6.3|
1,5,1|
1,6,6.1|
1,7,3.3|
2,0,0.55|
2,1,5.9|
2,2,8|
2,3,4|
2,4,4|
2,5,0.36|
2,6,8.5|
2,7,1.2|
3,0,2.5|
3,1,2.2|
3,2,0.33|
3,3,5.5|
3,4,6|
3,5,2.3|
3,6,4.4|
3,7,9.9|
4,0,7.5|
4,1,0.19|
4,2,0.29|
4,3,6.3|
4,4,7.5|
4,5,1.4|
4,6,3.7|
4,7,2.7|
5,0,7.8|
5,1,7.4|
5,2,3.9|
5,3,7.1|
5,4,4.7|
5,5,0.62|
5,6,2.1|
5,7,4.8|
6,0,3.6|
6,1,4.9|
6,2,1.4|
6,3,8|
6,4,6.1|
6,5,6.6|
6,6,2.5|
6,7,9.4|
7,0,8|
7,1,1.8|
7,2,4.7|
7,3,2.1|
7,4,2.3|
7,5,0.098|
7,6,6|
7,7,9.9|
];
initial_distribution_y1=[0.16,0.088,0.1,0.049,0.19,0.0062,0.14,0.27];
initial_distribution_y2=[0.16,0.093,0.19,0.021,0.089,0.11,0.12,0.21];
initial_distribution_y3=[0.13,0.18,0.14,0.13,0.051,0.096,0.16,0.12];
initial_distribution_y4=[0.16,0.13,0.2,0.098,0.12,0.035,0.18,0.073];
initial_distribution_y5=[0.04,0.069,0.11,0.081,0.12,0.19,0.14,0.25];
initial_distribution_y6=[0.017,0.16,0.092,0.19,0.063,0.19,0.19,0.1];
transition_y1=[
0.037,0.24,0.24,0.13,0.15,0.06,0.069,0.081|
0.25,0.093,0.098,0.1,0.02,0.072,0.22,0.15|
0.2,0.15,0.021,0.075,0.12,0.066,0.074,0.29|
0.14,0.11,0.022,0.26,0.072,0.037,0.085,0.28|
0.23,0.22,0.073,0.097,0.04,0.031,0.16,0.15|
0.14,0.11,0.076,0.13,0.14,0.17,0.17,0.052|
0.11,0.015,0.057,0.12,0.016,0.24,0.2,0.24|
0.17,0.083,0.15,0.18,0.34,0.0055,0.053,0.018|
];
transition_y2=[
0.21,0.063,0.04,0.028,0.2,0.22,0.011,0.23|
0.072,0.17,0.18,0.15,0.13,0.14,0.038,0.12|
0.12,0.19,0.085,0.091,0.16,0.18,0.11,0.054|
0.062,0.027,0.29,0.02,0.17,0.17,0.15,0.1|
0.15,0.18,0.18,0.16,0.0032,0.14,0.13,0.067|
0.1,0.14,0.19,0.15,0.011,0.17,0.096,0.13|
0.091,0.091,0.21,0.23,0.0043,0.026,0.14,0.2|
0.2,0.13,0.082,0.019,0.21,0.15,0.15,0.065|
];
transition_y3=[
0.056,0.21,0.083,0.12,0.1,0.16,0.17,0.1|
0.11,0.2,0.19,0.01,0.051,0.12,0.16,0.15|
0.086,0.21,0.0064,0.034,0.26,0.028,0.21,0.16|
0.1,0.18,0.042,0.16,0.073,0.15,0.23,0.059|
0.15,0.15,0.17,0.065,0.089,0.03,0.18,0.17|
0.14,0.16,0.12,0.13,0.11,0.14,0.038,0.15|
0.096,0.12,0.21,0.12,0.054,0.18,0.11,0.12|
0.15,0.097,0.06,0.21,0.21,0.17,0.0046,0.096|
];
transition_y4=[
0.2,0.041,0.091,0.049,0.19,0.28,0.0083,0.15|
0.16,0.15,0.074,0.098,0.13,0.16,0.21,0.0066|
0.15,0.058,0.18,0.12,0.069,0.14,0.23,0.055|
0.015,0.22,0.022,0.11,0.17,0.035,0.045,0.38|
0.055,0.1,0.25,0.11,0.025,0.11,0.035,0.32|
0.21,0.25,0.069,0.055,0.18,0.032,0.013,0.19|
0.11,0.11,0.015,0.039,0.18,0.14,0.2,0.2|
0.062,0.21,0.039,0.19,0.023,0.19,0.14,0.15|
];
transition_y5=[
0.14,0.062,0.21,0.025,0.16,0.23,0.08,0.087|
0.02,0.3,0.19,0.052,0.13,0.013,0.14,0.14|
0.15,0.09,0.05,0.084,0.059,0.16,0.18,0.23|
0.13,0.15,0.11,0.094,0.045,0.2,0.21,0.069|
0.084,0.058,0.086,0.21,0.1,0.06,0.19,0.22|
0.038,0.17,0.13,0.046,0.19,0.15,0.13,0.15|
0.089,0.12,0.14,0.16,0.13,0.2,0.086,0.083|
0.028,0.039,0.13,0.26,0.1,0.27,0.077,0.097|
];
transition_y6=[
0.21,0.22,0.15,0.016,0.16,0.008,0.023,0.2|
0.088,0.091,0.11,0.19,0.12,0.13,0.087,0.18|
0.17,0.14,0.11,0.13,0.038,0.18,0.2,0.039|
0.18,0.013,0.19,0.13,0.054,0.16,0.084,0.18|
0.15,0.074,0.22,0.03,0.13,0.069,0.19,0.13|
0.15,0.17,0.18,0.085,0.16,0.05,0.18,0.021|
0.07,0.13,0.098,0.21,0.13,0.081,0.084,0.2|
0.1,0.19,0.072,0.18,0.096,0.018,0.17,0.18|
];
